CMPL model generation - running

CMPL version: 1.11.0
Authors: Thomas Schleiff, Mike Steglich
Distributed under the GPLv3 

create model instance ...
write model instance ...
CMPL model generation - finished

Solver - running


Welcome to IBM(R) ILOG(R) CPLEX(R) Interactive Optimizer 12.7.1.0
  with Simplex, Mixed Integer & Barrier Optimizers
5725-A06 5725-A29 5724-Y48 5724-Y49 5724-Y54 5724-Y55 5655-Y21
Copyright IBM Corp. 1988, 2017.  All Rights Reserved.

Type 'help' for a list of available commands.
Type 'help' followed by a command name for more
information on commands.

CPLEX> Specified objective sense: MINIMIZE
Selected objective  name:  line[1]
Selected RHS        name:  RHS
Selected bound      name:  BOUND
Problem '/tmp/cmpl.T24619.mps' read.
Read time = 0.06 sec. (10.14 ticks)
CPLEX> CPXPARAM_Read_APIEncoding                        "UTF-8"
Tried aggregator 3 times.
MIP Presolve eliminated 23800 rows and 37176 columns.
MIP Presolve modified 425 coefficients.
Aggregator did 938 substitutions.
Reduced MIP has 3184 rows, 4341 columns, and 12837 nonzeros.
Reduced MIP has 4131 binaries, 0 generals, 0 SOSs, and 0 indicators.
Presolve time = 0.06 sec. (50.74 ticks)
Found incumbent of value 2587.451566 after 0.13 sec. (89.38 ticks)
Probing time = 0.01 sec. (2.89 ticks)
Tried aggregator 1 time.
MIP Presolve eliminated 0 rows and 2 columns.
Reduced MIP has 3184 rows, 4339 columns, and 12833 nonzeros.
Reduced MIP has 4339 binaries, 0 generals, 0 SOSs, and 0 indicators.
Presolve time = 0.01 sec. (10.63 ticks)
Probing fixed 20 vars, tightened 0 bounds.
Probing time = 0.01 sec. (5.80 ticks)
Clique table members: 8007.
MIP emphasis: balance optimality and feasibility.
MIP search method: dynamic search.
Parallel mode: none, using 1 thread.
Root relaxation solution time = 0.01 sec. (10.45 ticks)

        Nodes                                         Cuts/
   Node  Left     Objective  IInf  Best Integer    Best Bound    ItCnt     Gap

*     0+    0                         2587.4516       -2.0150           100.08%
*     0     0      integral     0      582.8112      582.8112      482    0.00%
Elapsed time = 0.19 sec. (128.58 ticks, tree = 0.00 MB, solutions = 2)

Root node processing (before b&c):
  Real time             =    0.20 sec. (130.12 ticks)
Sequential b&c:
  Real time             =    0.00 sec. (0.00 ticks)
                          ------------
Total (root+branch&cut) =    0.20 sec. (130.12 ticks)

Solution pool: 2 solutions saved.

MIP - Integer optimal solution:  Objective =  5.8281122900e+02
Solution time =    0.20 sec.  Iterations = 482  Nodes = 0
Deterministic time = 130.24 ticks  (662.71 ticks/sec)

CPLEX> Incumbent solution written to file '/tmp/cmpl.T24619.gsol'.
CPLEX> 
CMPL: Time used for model generation: 1 seconds
CMPL: Time used for solving the model: 1 seconds


Solution written to ASCII file: results/output_generated_conf_0.8/2016-02-01-5/fair-nonlinear.sol

Solver - finished
